minimize
obj: 54.8704 y_1,1_ + 77.7331 y_1,2_ + 91.4507 y_1,3_ + 105.1683 y_1,4_ + 123.4584 y_1,5_ + 35.1623 y_2,1_ + 49.8132 y_2,2_ + 58.6038 y_2,3_ + 67.3944 y_2,4_ + 79.1152 y_2,5_ + 43.1348 y_3,1_ + 61.1076 y_3,2_ + 71.8913 y_3,3_ + 82.675 y_3,4_ + 97.0533 y_3,5_ + 18.5486 x_1,1,1_ + 18.5432 x_1,1,2_ + 18.7752 x_1,1,3_ + 13.6545 x_1,2,1_ + 14.1398 x_1,2,2_ + 14.6868 x_1,2,3_ + 12.5298 x_1,3,1_ + 11.4764 x_1,3,2_ + 10.5101 x_1,3,3_ + 26.2852 x_2,1,1_ + 30.1932 x_2,1,2_ + 26.4466 x_2,1,3_ + 17.2495 x_2,2,1_ + 15.9733 x_2,2,2_ + 16.6185 x_2,2,3_ + 11.783 x_2,3,1_ + 11.6805 x_2,3,2_ + 11.6339 x_2,3,3_ + 15.9164 x_3,1,1_ + 15.695 x_3,1,2_ + 14.0673 x_3,1,3_ + 3.6818 x_3,2,1_ + 3.6165 x_3,2,2_ + 3.6535 x_3,2,3_ + 18.4099 x_3,3,1_ + 19.6962 x_3,3,2_ + 22.6816 x_3,3,3_ + 4.877 x_4,1,1_ + 4.6693 x_4,1,2_ + 5.8818 x_4,1,3_ + 12.1442 x_4,2,1_ + 10.9117 x_4,2,2_ + 10.767 x_4,2,3_ + 32.661 x_4,3,1_ + 28.7744 x_4,3,2_ + 29.3898 x_4,3,3_ + 9.9466 x_5,1,1_ + 9.3572 x_5,1,2_ + 9.8212 x_5,1,3_ + 16.4418 x_5,2,1_ + 13.938 x_5,2,2_ + 15.6825 x_5,2,3_ + 20.7939 x_5,3,1_ + 24.1212 x_5,3,2_ + 21.1137 x_5,3,3_ + 27.8895 x_6,1,1_ + 30.665 x_6,1,2_ + 28.6633 x_6,1,3_ + 16.2854 x_6,2,1_ + 14.2526 x_6,2,2_ + 16.0728 x_6,2,3_ + 11.1747 x_6,3,1_ + 11.2773 x_6,3,2_ + 11.2617 x_6,3,3_ + 32.128 x_7,1,1_ + 37.9502 x_7,1,2_ + 30.3521 x_7,1,3_ + 21.8771 x_7,2,1_ + 26.5309 x_7,2,2_ + 22.625 x_7,2,3_ + 7.504 x_7,3,1_ + 7.0306 x_7,3,2_ + 8.2213 x_7,3,3_ + 21.88 x_8,1,1_ + 21.6518 x_8,1,2_ + 18.1619 x_8,1,3_ + 19.1323 x_8,2,1_ + 24.269 x_8,2,2_ + 22.5669 x_8,2,3_ + 20.224 x_8,3,1_ + 20.1796 x_8,3,2_ + 17.1293 x_8,3,3_ + 27.856 x_9,1,1_ + 25.8027 x_9,1,2_ + 28.1283 x_9,1,3_ + 17.0599 x_9,2,1_ + 20.0822 x_9,2,2_ + 18.6728 x_9,2,3_ + 3.7879 x_9,3,1_ + 3.7266 x_9,3,2_ + 3.6422 x_9,3,3_ + 10.1544 x_10,1,1_ + 9.2408 x_10,1,2_ + 10.7402 x_10,1,3_ + 7.3225 x_10,2,1_ + 7.6424 x_10,2,2_ + 7.3133 x_10,2,3_ + 18.3071 x_10,3,1_ + 17.5836 x_10,3,2_ + 18.8483 x_10,3,3_ + 0.5 R_1,1_ + 0.5 p_1,1_ + 0.125 w_1,1,1_ - 0.125 z_1,1,1_ + 0.125 w_1,2,1_ - 0.125 z_1,2,1_ + 0.125 w_1,3,1_ - 0.125 z_1,3,1_ + 0.125 w_1,4,1_ - 0.125 z_1,4,1_ + 0.125 w_1,5,1_ - 0.125 z_1,5,1_ + 0.5 R_1,2_ + 0.5 p_1,2_ + 0.125 w_1,1,2_ - 0.125 z_1,1,2_ + 0.125 w_1,2,2_ - 0.125 z_1,2,2_ + 0.125 w_1,3,2_ - 0.125 z_1,3,2_ + 0.125 w_1,4,2_ - 0.125 z_1,4,2_ + 0.125 w_1,5,2_ - 0.125 z_1,5,2_ + 0.5 R_1,3_ + 0.5 p_1,3_ + 0.125 w_1,1,3_ - 0.125 z_1,1,3_ + 0.125 w_1,2,3_ - 0.125 z_1,2,3_ + 0.125 w_1,3,3_ - 0.125 z_1,3,3_ + 0.125 w_1,4,3_ - 0.125 z_1,4,3_ + 0.125 w_1,5,3_ - 0.125 z_1,5,3_ + 0.5 R_2,1_ + 0.5 p_2,1_ + 0.125 w_2,1,1_ - 0.125 z_2,1,1_ + 0.125 w_2,2,1_ - 0.125 z_2,2,1_ + 0.125 w_2,3,1_ - 0.125 z_2,3,1_ + 0.125 w_2,4,1_ - 0.125 z_2,4,1_ + 0.125 w_2,5,1_ - 0.125 z_2,5,1_ + 0.5 R_2,2_ + 0.5 p_2,2_ + 0.125 w_2,1,2_ - 0.125 z_2,1,2_ + 0.125 w_2,2,2_ - 0.125 z_2,2,2_ + 0.125 w_2,3,2_ - 0.125 z_2,3,2_ + 0.125 w_2,4,2_ - 0.125 z_2,4,2_ + 0.125 w_2,5,2_ - 0.125 z_2,5,2_ + 0.5 R_2,3_ + 0.5 p_2,3_ + 0.125 w_2,1,3_ - 0.125 z_2,1,3_ + 0.125 w_2,2,3_ - 0.125 z_2,2,3_ + 0.125 w_2,3,3_ - 0.125 z_2,3,3_ + 0.125 w_2,4,3_ - 0.125 z_2,4,3_ + 0.125 w_2,5,3_ - 0.125 z_2,5,3_ + 0.5 R_3,1_ + 0.5 p_3,1_ + 0.125 w_3,1,1_ - 0.125 z_3,1,1_ + 0.125 w_3,2,1_ - 0.125 z_3,2,1_ + 0.125 w_3,3,1_ - 0.125 z_3,3,1_ + 0.125 w_3,4,1_ - 0.125 z_3,4,1_ + 0.125 w_3,5,1_ - 0.125 z_3,5,1_ + 0.5 R_3,2_ + 0.5 p_3,2_ + 0.125 w_3,1,2_ - 0.125 z_3,1,2_ + 0.125 w_3,2,2_ - 0.125 z_3,2,2_ + 0.125 w_3,3,2_ - 0.125 z_3,3,2_ + 0.125 w_3,4,2_ - 0.125 z_3,4,2_ + 0.125 w_3,5,2_ - 0.125 z_3,5,2_ + 0.5 R_3,3_ + 0.5 p_3,3_ + 0.125 w_3,1,3_ - 0.125 z_3,1,3_ + 0.125 w_3,2,3_ - 0.125 z_3,2,3_ + 0.125 w_3,3,3_ - 0.125 z_3,3,3_ + 0.125 w_3,4,3_ - 0.125 z_3,4,3_ + 0.125 w_3,5,3_ - 0.125 z_3,5,3_
subject to
cap: 293 x_1,1,1_ + 319 x_2,1,1_ + 99 x_3,1,1_ + 102 x_4,1,1_ + 132 x_5,1,1_ + 110 x_6,1,1_ + 62 x_7,1,1_ + 70 x_8,1,1_ + 157 x_9,1,1_ + 337 x_10,1,1_ - 2813.0208 y_1,1_ - 4219.5312 y_1,2_ - 5626.0417 y_1,3_ - 7032.5521 y_1,4_ - 8439.0625 y_1,5_ <= 0
cap_1: 223 x_1,1,2_ + 209 x_2,1,2_ + 127 x_3,1,2_ + 318 x_4,1,2_ + 99 x_5,1,2_ + 243 x_6,1,2_ + 220 x_7,1,2_ + 306 x_8,1,2_ + 336 x_9,1,2_ + 276 x_10,1,2_ - 2813.0208 y_1,1_ - 4219.5312 y_1,2_ - 5626.0417 y_1,3_ - 7032.5521 y_1,4_ - 8439.0625 y_1,5_ <= 0
cap_2: 188 x_1,1,3_ + 68 x_2,1,3_ + 154 x_3,1,3_ + 276 x_4,1,3_ + 63 x_5,1,3_ + 129 x_6,1,3_ + 70 x_7,1,3_ + 96 x_8,1,3_ + 229 x_9,1,3_ + 90 x_10,1,3_ - 2813.0208 y_1,1_ - 4219.5312 y_1,2_ - 5626.0417 y_1,3_ - 7032.5521 y_1,4_ - 8439.0625 y_1,5_ <= 0
cap_3: 293 x_1,2,1_ + 319 x_2,2,1_ + 99 x_3,2,1_ + 102 x_4,2,1_ + 132 x_5,2,1_ + 110 x_6,2,1_ + 62 x_7,2,1_ + 70 x_8,2,1_ + 157 x_9,2,1_ + 337 x_10,2,1_ - 2813.0208 y_2,1_ - 4219.5312 y_2,2_ - 5626.0417 y_2,3_ - 7032.5521 y_2,4_ - 8439.0625 y_2,5_ <= 0
cap_4: 223 x_1,2,2_ + 209 x_2,2,2_ + 127 x_3,2,2_ + 318 x_4,2,2_ + 99 x_5,2,2_ + 243 x_6,2,2_ + 220 x_7,2,2_ + 306 x_8,2,2_ + 336 x_9,2,2_ + 276 x_10,2,2_ - 2813.0208 y_2,1_ - 4219.5312 y_2,2_ - 5626.0417 y_2,3_ - 7032.5521 y_2,4_ - 8439.0625 y_2,5_ <= 0
cap_5: 188 x_1,2,3_ + 68 x_2,2,3_ + 154 x_3,2,3_ + 276 x_4,2,3_ + 63 x_5,2,3_ + 129 x_6,2,3_ + 70 x_7,2,3_ + 96 x_8,2,3_ + 229 x_9,2,3_ + 90 x_10,2,3_ - 2813.0208 y_2,1_ - 4219.5312 y_2,2_ - 5626.0417 y_2,3_ - 7032.5521 y_2,4_ - 8439.0625 y_2,5_ <= 0
cap_6: 293 x_1,3,1_ + 319 x_2,3,1_ + 99 x_3,3,1_ + 102 x_4,3,1_ + 132 x_5,3,1_ + 110 x_6,3,1_ + 62 x_7,3,1_ + 70 x_8,3,1_ + 157 x_9,3,1_ + 337 x_10,3,1_ - 2813.0208 y_3,1_ - 4219.5312 y_3,2_ - 5626.0417 y_3,3_ - 7032.5521 y_3,4_ - 8439.0625 y_3,5_ <= 0
cap_7: 223 x_1,3,2_ + 209 x_2,3,2_ + 127 x_3,3,2_ + 318 x_4,3,2_ + 99 x_5,3,2_ + 243 x_6,3,2_ + 220 x_7,3,2_ + 306 x_8,3,2_ + 336 x_9,3,2_ + 276 x_10,3,2_ - 2813.0208 y_3,1_ - 4219.5312 y_3,2_ - 5626.0417 y_3,3_ - 7032.5521 y_3,4_ - 8439.0625 y_3,5_ <= 0
cap_8: 188 x_1,3,3_ + 68 x_2,3,3_ + 154 x_3,3,3_ + 276 x_4,3,3_ + 63 x_5,3,3_ + 129 x_6,3,3_ + 70 x_7,3,3_ + 96 x_8,3,3_ + 229 x_9,3,3_ + 90 x_10,3,3_ - 2813.0208 y_3,1_ - 4219.5312 y_3,2_ - 5626.0417 y_3,3_ - 7032.5521 y_3,4_ - 8439.0625 y_3,5_ <= 0
c10: 1 y_1,1_ + 1 y_1,2_ + 1 y_1,3_ + 1 y_1,4_ + 1 y_1,5_ <= 1
c11: 1 y_2,1_ + 1 y_2,2_ + 1 y_2,3_ + 1 y_2,4_ + 1 y_2,5_ <= 1
c12: 1 y_3,1_ + 1 y_3,2_ + 1 y_3,3_ + 1 y_3,4_ + 1 y_3,5_ <= 1
c13: 1 z_1,1,1_ - 1 y_1,1_ <= 0
c14: 1 w_1,1,1_ - 100000 y_1,1_ <= 0
c15: 1 z_1,2,1_ - 1 y_1,2_ <= 0
c16: 1 w_1,2,1_ - 100000 y_1,2_ <= 0
c17: 1 z_1,3,1_ - 1 y_1,3_ <= 0
c18: 1 w_1,3,1_ - 100000 y_1,3_ <= 0
c19: 1 z_1,4,1_ - 1 y_1,4_ <= 0
c20: 1 w_1,4,1_ - 100000 y_1,4_ <= 0
c21: 1 z_1,5,1_ - 1 y_1,5_ <= 0
c22: 1 w_1,5,1_ - 100000 y_1,5_ <= 0
c23: 1 z_1,1,2_ - 1 y_1,1_ <= 0
c24: 1 w_1,1,2_ - 100000 y_1,1_ <= 0
c25: 1 z_1,2,2_ - 1 y_1,2_ <= 0
c26: 1 w_1,2,2_ - 100000 y_1,2_ <= 0
c27: 1 z_1,3,2_ - 1 y_1,3_ <= 0
c28: 1 w_1,3,2_ - 100000 y_1,3_ <= 0
c29: 1 z_1,4,2_ - 1 y_1,4_ <= 0
c30: 1 w_1,4,2_ - 100000 y_1,4_ <= 0
c31_1: 1 z_1,5,2_ - 1 y_1,5_ <= 0
c32_1: 1 w_1,5,2_ - 100000 y_1,5_ <= 0
c33_1: 1 z_1,1,3_ - 1 y_1,1_ <= 0
c34_1: 1 w_1,1,3_ - 100000 y_1,1_ <= 0
c35_1: 1 z_1,2,3_ - 1 y_1,2_ <= 0
c36_1: 1 w_1,2,3_ - 100000 y_1,2_ <= 0
c37_1: 1 z_1,3,3_ - 1 y_1,3_ <= 0
c38_1: 1 w_1,3,3_ - 100000 y_1,3_ <= 0
c39_1: 1 z_1,4,3_ - 1 y_1,4_ <= 0
c40_1: 1 w_1,4,3_ - 100000 y_1,4_ <= 0
c41_1: 1 z_1,5,3_ - 1 y_1,5_ <= 0
c42_1: 1 w_1,5,3_ - 100000 y_1,5_ <= 0
c43_1: 1 z_2,1,1_ - 1 y_2,1_ <= 0
c44_1: 1 w_2,1,1_ - 100000 y_2,1_ <= 0
c45_1: 1 z_2,2,1_ - 1 y_2,2_ <= 0
c46_1: 1 w_2,2,1_ - 100000 y_2,2_ <= 0
c47_1: 1 z_2,3,1_ - 1 y_2,3_ <= 0
c48_1: 1 w_2,3,1_ - 100000 y_2,3_ <= 0
c49_1: 1 z_2,4,1_ - 1 y_2,4_ <= 0
c50_1: 1 w_2,4,1_ - 100000 y_2,4_ <= 0
c51_1: 1 z_2,5,1_ - 1 y_2,5_ <= 0
c52_1: 1 w_2,5,1_ - 100000 y_2,5_ <= 0
c53_1: 1 z_2,1,2_ - 1 y_2,1_ <= 0
c54_1: 1 w_2,1,2_ - 100000 y_2,1_ <= 0
c55_1: 1 z_2,2,2_ - 1 y_2,2_ <= 0
c56_1: 1 w_2,2,2_ - 100000 y_2,2_ <= 0
c57_1: 1 z_2,3,2_ - 1 y_2,3_ <= 0
c58: 1 w_2,3,2_ - 100000 y_2,3_ <= 0
c59: 1 z_2,4,2_ - 1 y_2,4_ <= 0
c60: 1 w_2,4,2_ - 100000 y_2,4_ <= 0
c61: 1 z_2,5,2_ - 1 y_2,5_ <= 0
c62: 1 w_2,5,2_ - 100000 y_2,5_ <= 0
c63: 1 z_2,1,3_ - 1 y_2,1_ <= 0
c64: 1 w_2,1,3_ - 100000 y_2,1_ <= 0
c65: 1 z_2,2,3_ - 1 y_2,2_ <= 0
c66: 1 w_2,2,3_ - 100000 y_2,2_ <= 0
c67: 1 z_2,3,3_ - 1 y_2,3_ <= 0
c68: 1 w_2,3,3_ - 100000 y_2,3_ <= 0
c69: 1 z_2,4,3_ - 1 y_2,4_ <= 0
c70: 1 w_2,4,3_ - 100000 y_2,4_ <= 0
c71: 1 z_2,5,3_ - 1 y_2,5_ <= 0
c72: 1 w_2,5,3_ - 100000 y_2,5_ <= 0
c73: 1 z_3,1,1_ - 1 y_3,1_ <= 0
c74: 1 w_3,1,1_ - 100000 y_3,1_ <= 0
c75: 1 z_3,2,1_ - 1 y_3,2_ <= 0
c76: 1 w_3,2,1_ - 100000 y_3,2_ <= 0
c77: 1 z_3,3,1_ - 1 y_3,3_ <= 0
c78: 1 w_3,3,1_ - 100000 y_3,3_ <= 0
c79: 1 z_3,4,1_ - 1 y_3,4_ <= 0
c80: 1 w_3,4,1_ - 100000 y_3,4_ <= 0
c81: 1 z_3,5,1_ - 1 y_3,5_ <= 0
c82: 1 w_3,5,1_ - 100000 y_3,5_ <= 0
c83: 1 z_3,1,2_ - 1 y_3,1_ <= 0
c84: 1 w_3,1,2_ - 100000 y_3,1_ <= 0
c85: 1 z_3,2,2_ - 1 y_3,2_ <= 0
c86: 1 w_3,2,2_ - 100000 y_3,2_ <= 0
c87: 1 z_3,3,2_ - 1 y_3,3_ <= 0
c88: 1 w_3,3,2_ - 100000 y_3,3_ <= 0
c89: 1 z_3,4,2_ - 1 y_3,4_ <= 0
c90: 1 w_3,4,2_ - 100000 y_3,4_ <= 0
c91: 1 z_3,5,2_ - 1 y_3,5_ <= 0
c92: 1 w_3,5,2_ - 100000 y_3,5_ <= 0
c93: 1 z_3,1,3_ - 1 y_3,1_ <= 0
c94: 1 w_3,1,3_ - 100000 y_3,1_ <= 0
c95: 1 z_3,2,3_ - 1 y_3,2_ <= 0
c96: 1 w_3,2,3_ - 100000 y_3,2_ <= 0
c97: 1 z_3,3,3_ - 1 y_3,3_ <= 0
c98: 1 w_3,3,3_ - 100000 y_3,3_ <= 0
c99: 1 z_3,4,3_ - 1 y_3,4_ <= 0
c100: 1 w_3,4,3_ - 100000 y_3,4_ <= 0
c101: 1 z_3,5,3_ - 1 y_3,5_ <= 0
c102: 1 w_3,5,3_ - 100000 y_3,5_ <= 0
dem: 1 x_1,1,1_ + 1 x_1,2,1_ + 1 x_1,3,1_ = 1
dem_1: 1 x_1,1,2_ + 1 x_1,2,2_ + 1 x_1,3,2_ = 1
dem_2: 1 x_1,1,3_ + 1 x_1,2,3_ + 1 x_1,3,3_ = 1
dem_3: 1 x_2,1,1_ + 1 x_2,2,1_ + 1 x_2,3,1_ = 1
dem_4: 1 x_2,1,2_ + 1 x_2,2,2_ + 1 x_2,3,2_ = 1
dem_5: 1 x_2,1,3_ + 1 x_2,2,3_ + 1 x_2,3,3_ = 1
dem_6: 1 x_3,1,1_ + 1 x_3,2,1_ + 1 x_3,3,1_ = 1
dem_7: 1 x_3,1,2_ + 1 x_3,2,2_ + 1 x_3,3,2_ = 1
dem_8: 1 x_3,1,3_ + 1 x_3,2,3_ + 1 x_3,3,3_ = 1
dem_9: 1 x_4,1,1_ + 1 x_4,2,1_ + 1 x_4,3,1_ = 1
dem_10: 1 x_4,1,2_ + 1 x_4,2,2_ + 1 x_4,3,2_ = 1
dem_11: 1 x_4,1,3_ + 1 x_4,2,3_ + 1 x_4,3,3_ = 1
dem_12: 1 x_5,1,1_ + 1 x_5,2,1_ + 1 x_5,3,1_ = 1
dem_13: 1 x_5,1,2_ + 1 x_5,2,2_ + 1 x_5,3,2_ = 1
dem_14: 1 x_5,1,3_ + 1 x_5,2,3_ + 1 x_5,3,3_ = 1
dem_15: 1 x_6,1,1_ + 1 x_6,2,1_ + 1 x_6,3,1_ = 1
dem_16: 1 x_6,1,2_ + 1 x_6,2,2_ + 1 x_6,3,2_ = 1
dem_17: 1 x_6,1,3_ + 1 x_6,2,3_ + 1 x_6,3,3_ = 1
dem_18: 1 x_7,1,1_ + 1 x_7,2,1_ + 1 x_7,3,1_ = 1
dem_19: 1 x_7,1,2_ + 1 x_7,2,2_ + 1 x_7,3,2_ = 1
dem_20: 1 x_7,1,3_ + 1 x_7,2,3_ + 1 x_7,3,3_ = 1
dem_21: 1 x_8,1,1_ + 1 x_8,2,1_ + 1 x_8,3,1_ = 1
dem_22: 1 x_8,1,2_ + 1 x_8,2,2_ + 1 x_8,3,2_ = 1
dem_23: 1 x_8,1,3_ + 1 x_8,2,3_ + 1 x_8,3,3_ = 1
dem_24: 1 x_9,1,1_ + 1 x_9,2,1_ + 1 x_9,3,1_ = 1
dem_25: 1 x_9,1,2_ + 1 x_9,2,2_ + 1 x_9,3,2_ = 1
dem_26: 1 x_9,1,3_ + 1 x_9,2,3_ + 1 x_9,3,3_ = 1
dem_27: 1 x_10,1,1_ + 1 x_10,2,1_ + 1 x_10,3,1_ = 1
dem_28: 1 x_10,1,2_ + 1 x_10,2,2_ + 1 x_10,3,2_ = 1
dem_29: 1 x_10,1,3_ + 1 x_10,2,3_ + 1 x_10,3,3_ = 1
c31: -2813.0208 z_1,1,1_ - 4219.5312 z_1,2,1_ - 5626.0417 z_1,3,1_ - 7032.5521 z_1,4,1_ - 8439.0625 z_1,5,1_ + 293 x_1,1,1_ + 319 x_2,1,1_ + 99 x_3,1,1_ + 102 x_4,1,1_ + 132 x_5,1,1_ + 110 x_6,1,1_ + 62 x_7,1,1_ + 70 x_8,1,1_ + 157 x_9,1,1_ + 337 x_10,1,1_ = 0
c32: 1 z_1,1,1_ + 1 z_1,2,1_ + 1 z_1,3,1_ + 1 z_1,4,1_ + 1 z_1,5,1_ - 1 p_1,1_ = 0
c33: 1 w_1,1,1_ + 1 w_1,2,1_ + 1 w_1,3,1_ + 1 w_1,4,1_ + 1 w_1,5,1_ - 1 R_1,1_ = 0
c34: -2813.0208 z_1,1,2_ - 4219.5312 z_1,2,2_ - 5626.0417 z_1,3,2_ - 7032.5521 z_1,4,2_ - 8439.0625 z_1,5,2_ + 223 x_1,1,2_ + 209 x_2,1,2_ + 127 x_3,1,2_ + 318 x_4,1,2_ + 99 x_5,1,2_ + 243 x_6,1,2_ + 220 x_7,1,2_ + 306 x_8,1,2_ + 336 x_9,1,2_ + 276 x_10,1,2_ = 0
c35: 1 z_1,1,2_ + 1 z_1,2,2_ + 1 z_1,3,2_ + 1 z_1,4,2_ + 1 z_1,5,2_ - 1 p_1,2_ = 0
c36: 1 w_1,1,2_ + 1 w_1,2,2_ + 1 w_1,3,2_ + 1 w_1,4,2_ + 1 w_1,5,2_ - 1 R_1,2_ = 0
c37: -2813.0208 z_1,1,3_ - 4219.5312 z_1,2,3_ - 5626.0417 z_1,3,3_ - 7032.5521 z_1,4,3_ - 8439.0625 z_1,5,3_ + 188 x_1,1,3_ + 68 x_2,1,3_ + 154 x_3,1,3_ + 276 x_4,1,3_ + 63 x_5,1,3_ + 129 x_6,1,3_ + 70 x_7,1,3_ + 96 x_8,1,3_ + 229 x_9,1,3_ + 90 x_10,1,3_ = 0
c38: 1 z_1,1,3_ + 1 z_1,2,3_ + 1 z_1,3,3_ + 1 z_1,4,3_ + 1 z_1,5,3_ - 1 p_1,3_ = 0
c39: 1 w_1,1,3_ + 1 w_1,2,3_ + 1 w_1,3,3_ + 1 w_1,4,3_ + 1 w_1,5,3_ - 1 R_1,3_ = 0
c40: -2813.0208 z_2,1,1_ - 4219.5312 z_2,2,1_ - 5626.0417 z_2,3,1_ - 7032.5521 z_2,4,1_ - 8439.0625 z_2,5,1_ + 293 x_1,2,1_ + 319 x_2,2,1_ + 99 x_3,2,1_ + 102 x_4,2,1_ + 132 x_5,2,1_ + 110 x_6,2,1_ + 62 x_7,2,1_ + 70 x_8,2,1_ + 157 x_9,2,1_ + 337 x_10,2,1_ = 0
c41: 1 z_2,1,1_ + 1 z_2,2,1_ + 1 z_2,3,1_ + 1 z_2,4,1_ + 1 z_2,5,1_ - 1 p_2,1_ = 0
c42: 1 w_2,1,1_ + 1 w_2,2,1_ + 1 w_2,3,1_ + 1 w_2,4,1_ + 1 w_2,5,1_ - 1 R_2,1_ = 0
c43: -2813.0208 z_2,1,2_ - 4219.5312 z_2,2,2_ - 5626.0417 z_2,3,2_ - 7032.5521 z_2,4,2_ - 8439.0625 z_2,5,2_ + 223 x_1,2,2_ + 209 x_2,2,2_ + 127 x_3,2,2_ + 318 x_4,2,2_ + 99 x_5,2,2_ + 243 x_6,2,2_ + 220 x_7,2,2_ + 306 x_8,2,2_ + 336 x_9,2,2_ + 276 x_10,2,2_ = 0
c44: 1 z_2,1,2_ + 1 z_2,2,2_ + 1 z_2,3,2_ + 1 z_2,4,2_ + 1 z_2,5,2_ - 1 p_2,2_ = 0
c45: 1 w_2,1,2_ + 1 w_2,2,2_ + 1 w_2,3,2_ + 1 w_2,4,2_ + 1 w_2,5,2_ - 1 R_2,2_ = 0
c46: -2813.0208 z_2,1,3_ - 4219.5312 z_2,2,3_ - 5626.0417 z_2,3,3_ - 7032.5521 z_2,4,3_ - 8439.0625 z_2,5,3_ + 188 x_1,2,3_ + 68 x_2,2,3_ + 154 x_3,2,3_ + 276 x_4,2,3_ + 63 x_5,2,3_ + 129 x_6,2,3_ + 70 x_7,2,3_ + 96 x_8,2,3_ + 229 x_9,2,3_ + 90 x_10,2,3_ = 0
c47: 1 z_2,1,3_ + 1 z_2,2,3_ + 1 z_2,3,3_ + 1 z_2,4,3_ + 1 z_2,5,3_ - 1 p_2,3_ = 0
c48: 1 w_2,1,3_ + 1 w_2,2,3_ + 1 w_2,3,3_ + 1 w_2,4,3_ + 1 w_2,5,3_ - 1 R_2,3_ = 0
c49: -2813.0208 z_3,1,1_ - 4219.5312 z_3,2,1_ - 5626.0417 z_3,3,1_ - 7032.5521 z_3,4,1_ - 8439.0625 z_3,5,1_ + 293 x_1,3,1_ + 319 x_2,3,1_ + 99 x_3,3,1_ + 102 x_4,3,1_ + 132 x_5,3,1_ + 110 x_6,3,1_ + 62 x_7,3,1_ + 70 x_8,3,1_ + 157 x_9,3,1_ + 337 x_10,3,1_ = 0
c50: 1 z_3,1,1_ + 1 z_3,2,1_ + 1 z_3,3,1_ + 1 z_3,4,1_ + 1 z_3,5,1_ - 1 p_3,1_ = 0
c51: 1 w_3,1,1_ + 1 w_3,2,1_ + 1 w_3,3,1_ + 1 w_3,4,1_ + 1 w_3,5,1_ - 1 R_3,1_ = 0
c52: -2813.0208 z_3,1,2_ - 4219.5312 z_3,2,2_ - 5626.0417 z_3,3,2_ - 7032.5521 z_3,4,2_ - 8439.0625 z_3,5,2_ + 223 x_1,3,2_ + 209 x_2,3,2_ + 127 x_3,3,2_ + 318 x_4,3,2_ + 99 x_5,3,2_ + 243 x_6,3,2_ + 220 x_7,3,2_ + 306 x_8,3,2_ + 336 x_9,3,2_ + 276 x_10,3,2_ = 0
c53: 1 z_3,1,2_ + 1 z_3,2,2_ + 1 z_3,3,2_ + 1 z_3,4,2_ + 1 z_3,5,2_ - 1 p_3,2_ = 0
c54: 1 w_3,1,2_ + 1 w_3,2,2_ + 1 w_3,3,2_ + 1 w_3,4,2_ + 1 w_3,5,2_ - 1 R_3,2_ = 0
c55: -2813.0208 z_3,1,3_ - 4219.5312 z_3,2,3_ - 5626.0417 z_3,3,3_ - 7032.5521 z_3,4,3_ - 8439.0625 z_3,5,3_ + 188 x_1,3,3_ + 68 x_2,3,3_ + 154 x_3,3,3_ + 276 x_4,3,3_ + 63 x_5,3,3_ + 129 x_6,3,3_ + 70 x_7,3,3_ + 96 x_8,3,3_ + 229 x_9,3,3_ + 90 x_10,3,3_ = 0
c56: 1 z_3,1,3_ + 1 z_3,2,3_ + 1 z_3,3,3_ + 1 z_3,4,3_ + 1 z_3,5,3_ - 1 p_3,3_ = 0
c57: 1 w_3,1,3_ + 1 w_3,2,3_ + 1 w_3,3,3_ + 1 w_3,4,3_ + 1 w_3,5,3_ - 1 R_3,3_ = 0
nlcons: -1 p_1,1_ + 1 R_1,1_ + [ -1 R_1,1_ * p_1,1_ ] = 0
nlcons_1: -1 p_1,2_ + 1 R_1,2_ + [ -1 R_1,2_ * p_1,2_ ] = 0
nlcons_2: -1 p_1,3_ + 1 R_1,3_ + [ -1 R_1,3_ * p_1,3_ ] = 0
nlcons_3: -1 p_2,1_ + 1 R_2,1_ + [ -1 R_2,1_ * p_2,1_ ] = 0
nlcons_4: -1 p_2,2_ + 1 R_2,2_ + [ -1 R_2,2_ * p_2,2_ ] = 0
nlcons_5: -1 p_2,3_ + 1 R_2,3_ + [ -1 R_2,3_ * p_2,3_ ] = 0
nlcons_6: -1 p_3,1_ + 1 R_3,1_ + [ -1 R_3,1_ * p_3,1_ ] = 0
nlcons_7: -1 p_3,2_ + 1 R_3,2_ + [ -1 R_3,2_ * p_3,2_ ] = 0
nlcons_8: -1 p_3,3_ + 1 R_3,3_ + [ -1 R_3,3_ * p_3,3_ ] = 0
Bounds
0 <= z_1,1,1_ <= 1
0 <= z_2,1,1_ <= 1
0 <= z_3,1,1_ <= 1
0 <= z_1,2,1_ <= 1
0 <= z_2,2,1_ <= 1
0 <= z_3,2,1_ <= 1
0 <= z_1,3,1_ <= 1
0 <= z_2,3,1_ <= 1
0 <= z_3,3,1_ <= 1
0 <= z_1,4,1_ <= 1
0 <= z_2,4,1_ <= 1
0 <= z_3,4,1_ <= 1
0 <= z_1,5,1_ <= 1
0 <= z_2,5,1_ <= 1
0 <= z_3,5,1_ <= 1
0 <= z_1,1,2_ <= 1
0 <= z_2,1,2_ <= 1
0 <= z_3,1,2_ <= 1
0 <= z_1,2,2_ <= 1
0 <= z_2,2,2_ <= 1
0 <= z_3,2,2_ <= 1
0 <= z_1,3,2_ <= 1
0 <= z_2,3,2_ <= 1
0 <= z_3,3,2_ <= 1
0 <= z_1,4,2_ <= 1
0 <= z_2,4,2_ <= 1
0 <= z_3,4,2_ <= 1
0 <= z_1,5,2_ <= 1
0 <= z_2,5,2_ <= 1
0 <= z_3,5,2_ <= 1
0 <= z_1,1,3_ <= 1
0 <= z_2,1,3_ <= 1
0 <= z_3,1,3_ <= 1
0 <= z_1,2,3_ <= 1
0 <= z_2,2,3_ <= 1
0 <= z_3,2,3_ <= 1
0 <= z_1,3,3_ <= 1
0 <= z_2,3,3_ <= 1
0 <= z_3,3,3_ <= 1
0 <= z_1,4,3_ <= 1
0 <= z_2,4,3_ <= 1
0 <= z_3,4,3_ <= 1
0 <= z_1,5,3_ <= 1
0 <= z_2,5,3_ <= 1
0 <= z_3,5,3_ <= 1
0 <= p_1,1_ <= 1
0 <= p_2,1_ <= 1
0 <= p_3,1_ <= 1
0 <= p_1,2_ <= 1
0 <= p_2,2_ <= 1
0 <= p_3,2_ <= 1
0 <= p_1,3_ <= 1
0 <= p_2,3_ <= 1
0 <= p_3,3_ <= 1
w_1,1,1_ >= 0
w_2,1,1_ >= 0
w_3,1,1_ >= 0
w_1,2,1_ >= 0
w_2,2,1_ >= 0
w_3,2,1_ >= 0
w_1,3,1_ >= 0
w_2,3,1_ >= 0
w_3,3,1_ >= 0
w_1,4,1_ >= 0
w_2,4,1_ >= 0
w_3,4,1_ >= 0
w_1,5,1_ >= 0
w_2,5,1_ >= 0
w_3,5,1_ >= 0
w_1,1,2_ >= 0
w_2,1,2_ >= 0
w_3,1,2_ >= 0
w_1,2,2_ >= 0
w_2,2,2_ >= 0
w_3,2,2_ >= 0
w_1,3,2_ >= 0
w_2,3,2_ >= 0
w_3,3,2_ >= 0
w_1,4,2_ >= 0
w_2,4,2_ >= 0
w_3,4,2_ >= 0
w_1,5,2_ >= 0
w_2,5,2_ >= 0
w_3,5,2_ >= 0
w_1,1,3_ >= 0
w_2,1,3_ >= 0
w_3,1,3_ >= 0
w_1,2,3_ >= 0
w_2,2,3_ >= 0
w_3,2,3_ >= 0
w_1,3,3_ >= 0
w_2,3,3_ >= 0
w_3,3,3_ >= 0
w_1,4,3_ >= 0
w_2,4,3_ >= 0
w_3,4,3_ >= 0
w_1,5,3_ >= 0
w_2,5,3_ >= 0
w_3,5,3_ >= 0
R_1,1_ >= 0
R_2,1_ >= 0
R_3,1_ >= 0
R_1,2_ >= 0
R_2,2_ >= 0
R_3,2_ >= 0
R_1,3_ >= 0
R_2,3_ >= 0
R_3,3_ >= 0
Binary
x_1,1,1_
x_2,1,1_
x_3,1,1_
x_4,1,1_
x_5,1,1_
x_6,1,1_
x_7,1,1_
x_8,1,1_
x_9,1,1_
x_10,1,1_
x_1,2,1_
x_2,2,1_
x_3,2,1_
x_4,2,1_
x_5,2,1_
x_6,2,1_
x_7,2,1_
x_8,2,1_
x_9,2,1_
x_10,2,1_
x_1,3,1_
x_2,3,1_
x_3,3,1_
x_4,3,1_
x_5,3,1_
x_6,3,1_
x_7,3,1_
x_8,3,1_
x_9,3,1_
x_10,3,1_
x_1,1,2_
x_2,1,2_
x_3,1,2_
x_4,1,2_
x_5,1,2_
x_6,1,2_
x_7,1,2_
x_8,1,2_
x_9,1,2_
x_10,1,2_
x_1,2,2_
x_2,2,2_
x_3,2,2_
x_4,2,2_
x_5,2,2_
x_6,2,2_
x_7,2,2_
x_8,2,2_
x_9,2,2_
x_10,2,2_
x_1,3,2_
x_2,3,2_
x_3,3,2_
x_4,3,2_
x_5,3,2_
x_6,3,2_
x_7,3,2_
x_8,3,2_
x_9,3,2_
x_10,3,2_
x_1,1,3_
x_2,1,3_
x_3,1,3_
x_4,1,3_
x_5,1,3_
x_6,1,3_
x_7,1,3_
x_8,1,3_
x_9,1,3_
x_10,1,3_
x_1,2,3_
x_2,2,3_
x_3,2,3_
x_4,2,3_
x_5,2,3_
x_6,2,3_
x_7,2,3_
x_8,2,3_
x_9,2,3_
x_10,2,3_
x_1,3,3_
x_2,3,3_
x_3,3,3_
x_4,3,3_
x_5,3,3_
x_6,3,3_
x_7,3,3_
x_8,3,3_
x_9,3,3_
x_10,3,3_
y_1,1_
y_2,1_
y_3,1_
y_1,2_
y_2,2_
y_3,2_
y_1,3_
y_2,3_
y_3,3_
y_1,4_
y_2,4_
y_3,4_
y_1,5_
y_2,5_
y_3,5_
End
